(set-info :smt-lib-version 2.6)
(set-logic QF_NRA)
(set-info :source |
These benchmarks used in the paper:

  Dejan Jovanovic and Leonardo de Moura.  Solving Non-Linear Arithmetic.
  In IJCAR 2012, published as LNCS volume 7364, pp. 339--354.

The meti-tarski benchmarks are proof obligations extracted from the
Meti-Tarski project, see:

  B. Akbarpour and L. C. Paulson. MetiTarski: An automatic theorem prover
  for real-valued special functions. Journal of Automated Reasoning,
  44(3):175-205, 2010.

Submitted by Dejan Jovanovic for SMT-LIB.


|)
(set-info :category "industrial")
(set-info :status sat)
(declare-fun skoX () Real)
(declare-fun skoC () Real)
(declare-fun skoS () Real)
(assert (and (<= (* skoX (+ (/ (- 8352) 625) (* skoX (+ (/ (- 15138) 390625) (* skoX (+ (/ (- 73167) 976562500) (* skoX (+ (/ (- 14852901) 156250000000000) (* skoX (+ (/ (- 61533447) 781250000000000000) (* skoX (/ (- 594823321) 15625000000000000000000)))))))))))) 2304) (and (not (<= skoX 0)) (and (= (* skoS skoS) (+ 1 (* skoC (* skoC (- 1))))) (and (<= skoX 75) (<= 0 skoX))))))
(check-sat)
(exit)
